NAME : amz1444.1657979_139979.tour
COMMENT : Cost = 1657979_139979
COMMENT : Found by LKH-AMZ [Keld Helsgaun] Sun May 11 14:53:17 2025
COMMENT : TW viol.: 0 #: 0
TYPE : TOUR
DIMENSION : 115
TOUR_SECTION
86
78
4
62
8
14
6
93
105
45
59
12
40
104
69
102
53
92
27
109
107
22
64
70
71
2
103
34
44
10
19
89
97
48
60
72
98
112
28
80
51
79
36
13
67
32
30
43
18
61
81
88
21
87
23
111
94
37
90
9
11
76
42
15
101
58
3
33
66
31
55
41
56
114
47
54
73
49
77
100
74
113
91
95
16
35
68
46
7
82
52
29
108
57
25
24
65
26
1
115
63
75
84
20
17
5
99
50
38
83
106
96
39
110
85
-1
EOF
